CapLotSizing_PM/src/Instancias/TCLSLT/6i6p2m/NBB03.OUT
 CG ITER, OVMR, OVMRUB =           1    9247.5361328    8194.0898438
 CG ITER, OVMR, OVMRUB =           2    8194.0898438    8194.0898438
 CG ITER, OVMR, OVMRUB =           3    8011.8994141    8011.8999023
 CG ITER, OVMR, OVMRUB =           4    8011.8999023    8011.8999023
 CG ITER, OVMR, OVMRUB =           5    8011.9003906    8011.8999023
 CG ITER, OVMR, OVMRUB =           6    8011.8999023    8011.8999023
 CG ITER, OVMR, OVMRUB =           7    8011.9008789    8011.8999023
 CG ITER, OVMR, OVMRUB =           8    8011.9003906    8011.8999023
 CG ITER, OVMR, OVMRUB =           9    8011.9003906    8011.8999023
 CG ITER, OVMR, OVMRUB =          10    8011.8999023    8011.8999023
 CG ITER, OVMR, OVMRUB =          11    8011.9003906    8011.8999023
 CG ITER, OVMR, OVMRUB =          12    8011.9003906    8011.8999023
OVLB =    8011.9003906 OVLUB =    8011.8999023 TIME =       0.5600000
